; benchmark generated from python API
(set-info :status unknown)
(declare-sort flit_id)
 (declare-sort flit)
 (declare-fun __id (flit) flit_id)
(declare-fun packet () flit)
(declare-fun flit_to_watch () flit)
(declare-fun id (flit) flit_id)
(declare-fun r_N_10.tally () (_ BitVec 3))
(declare-fun r_S_11.tally () (_ BitVec 3))
(declare-fun |r_N_10.assigned:0| () Bool)
(declare-fun __r_N_10.has_flit () Bool)
(declare-fun __ts0_d () Bool)
(declare-fun __ts0__ts0_a_a () Bool)
(declare-fun |r_PE_10.assigned:0| () Bool)
(declare-fun __r_PE_10.has_flit () Bool)
(declare-fun __ts0__ts0_b_a () Bool)
(declare-fun |arb_N_10.get_from:0| () Bool)
(declare-fun __ts0__ts0__ts0_b_a_a_a () Bool)
(declare-fun __ts0__ts0__ts0__ts0_a_a_a_a () Bool)
(declare-fun r_PE_10.ready () Bool)
(declare-fun r_PE_10.has_flit () Bool)
(declare-fun __ts0_f () Bool)
(declare-fun |__arb_N_10.get_from:0| () Bool)
(declare-fun r_N_10.has_flit () Bool)
(declare-fun __ts0_c () Bool)
(declare-fun __r_S_11.has_flit () Bool)
(declare-fun r_S_11.has_flit () Bool)
(declare-fun __ts0_e () Bool)
(declare-fun livelock_exists () Bool)
(assert
 (let (($x110 (or (and (= |r_N_10.assigned:0| false)) (and (and |r_N_10.assigned:0| true) (and false true)))))
 (let (($x159 (ite __ts0_d (and __r_N_10.has_flit $x110) (and __r_N_10.has_flit $x110))))
 (let (($x128 (or (and (= |r_PE_10.assigned:0| false)) (and (and |r_PE_10.assigned:0| true) (and false true)))))
 (let (($x142 (ite __ts0_d (and __r_PE_10.has_flit $x128) (and __r_PE_10.has_flit $x128))))
 (let (($x37 (or (and (= |arb_N_10.get_from:0| false)) (and (and |arb_N_10.get_from:0| true) (and false true)))))
 (let (($x93 (or (and (= |arb_N_10.get_from:0| true)) (and (and |arb_N_10.get_from:0| true) (and true true)))))
 (let (($x105 (forall ((|V0:flit| flit) )(= (id |V0:flit|) (ite (and (= |V0:flit| flit_to_watch)) (__id packet) (__id |V0:flit|))))
 ))
 (let (($x44 (not __ts0_d)))
 (let (($x102 (or $x44 (or __ts0__ts0__ts0_b_a_a_a (= r_PE_10.has_flit __r_PE_10.has_flit)))))
 (let (($x119 (not __ts0_f)))
 (let (($x91 (or $x44 (or __ts0__ts0__ts0_b_a_a_a (or __ts0__ts0__ts0__ts0_a_a_a_a or)))))
 (let (($x90 (or __ts0__ts0__ts0_b_a_a_a (or (not __ts0__ts0__ts0__ts0_a_a_a_a) or))))
 (let (($x280 (and |arb_N_10.get_from:0| true)))
 (let (($x101 (and $x280 (and (ite __ts0__ts0_a_a true |__arb_N_10.get_from:0|) true))))
 (let (($x82 (= |arb_N_10.get_from:0| (ite __ts0__ts0_a_a true |__arb_N_10.get_from:0|))))
 (let (($x83 (or $x119 (or $x44 (or (not __ts0__ts0_b_a) (or __ts0__ts0_a_a $x37))))))
 (let (($x28 (or $x119 (or (not __ts0_c) (= r_PE_10.has_flit __r_PE_10.has_flit)))))
 (let (($x68 (or $x119 (or (not __ts0_c) (or __ts0__ts0_b_a (or __ts0__ts0_a_a or))))))
 (let (($x122 (not __ts0_c)))
 (let (($x20 (or $x119 (or $x122 (or __ts0__ts0_b_a (or (not __ts0__ts0_a_a) or))))))
 (let (($x266 (or $x119 (or $x122 (or (not __ts0__ts0_b_a) (or __ts0__ts0_a_a or))))))
 (let (($x26 (or $x119 (or $x122 (or (not __ts0__ts0_b_a) (or (not __ts0__ts0_a_a) or))))))
 (let (($x8 (= r_N_10.has_flit __r_N_10.has_flit)))
 (let (($x274 (not __ts0_e)))
 (let (($x7 (or $x274 $x8)))
 (let (($x12 (= r_S_11.has_flit __r_S_11.has_flit)))
 (let (($x10 (or $x274 $x12)))
 (let (($x17 (or (and (= |arb_N_10.get_from:0| |__arb_N_10.get_from:0|)) (and $x280 (and |__arb_N_10.get_from:0| true)))))
 (let (($x130 (or livelock_exists (and (bvule r_S_11.tally (_ bv5 3)) (bvule r_N_10.tally (_ bv5 3))))))
 (and $x130 __r_PE_10.has_flit (= (id flit_to_watch) (id packet)) (or __ts0_e __ts0_f) (or $x274 (not (and __r_PE_10.has_flit r_PE_10.ready))) (or $x274 (= r_PE_10.has_flit __r_PE_10.has_flit)) (or $x274 $x17) $x10 $x7 (or $x119 (or __ts0_c __ts0_d)) $x26 $x266 $x20 $x68 $x28 (or $x119 (or $x122 $x12)) (or $x119 (or $x122 $x8)) $x83 (or $x119 (or $x44 (or __ts0__ts0_b_a (or (and $x82) $x101)))) (or $x119 (or $x44 (or $x37 $x93))) (or $x119 (or $x44 (or (not __ts0__ts0__ts0_b_a_a_a) or))) (or $x119 (or $x44 $x90)) (or $x119 $x91) (or $x119 $x102) $x105 $x128 (= r_PE_10.ready and) (= __ts0__ts0__ts0__ts0_a_a_a_a $x93) (= __ts0__ts0__ts0_b_a_a_a $x37) (= __ts0__ts0_b_a $x142) (= __ts0__ts0_a_a $x159))))))))))))))))))))))))))))))))
(assert
 (and (not or)))
(check-sat)
